$rem
	exchange 		hf
	unrestricted		1
	basis			6-31g*	
	aux_basis		rimp2-vdz
	scf_guess		core	
	scf_convergence		8
	purecart		1111
	
	symmetry		0
	sym_ignore		1

	!correlation		sf-cas
	!cas_n_spin_flip		1
	!cas_local		1
	gui			2
$end

$development
	1sf_heis_projection	1
$end

$molecule
0 13
H	-0.73854	-0.54065	0.08576
H	-2.3134	-1.01748	-0.67017
H	-2.09582	0.65549	-0.01146
H	-2.21044	-0.75437	1.11995
H	21.47674	24.27203	20.09828
H	20.1685	24.86022	21.20546
H	20.18287	23.1348	20.65668
H	19.78314	24.45528	19.48257
H	3.4885	-0.87553	-0.06084
H	2.29649	0.48578	-0.00191
H	1.9396	-1.06676	0.85992
H	1.91588	-1.00965	-0.95022
He	10	10	10
He	-10	10	10
$end


@@@
$rem
	exchange 		hf
	unrestricted		0
	basis			6-31g*	
	aux_basis		rimp2-vdz
	scf_guess		read	
	scf_convergence		8
	purecart		1111
	
	symmetry		0
	sym_ignore		1

	correlation		sf-cas
	cas_n_spin_flip		1
	cas_local		1
	gui			2
$end

$development
	1sf_heis_projection	1
	scf_corresponding_orbs	1
        heisenberg_n_roots	1000
$end

$molecule
read
$end

