$rem
	exchange 		hf
	unrestricted		1
	basis			6-31g*	
	aux_basis		rimp2-vdz
	scf_guess		core	
	scf_convergence		8
	purecart		1111
	
	symmetry		0
	sym_ignore		1

	!correlation		sf-cas
	!cas_n_spin_flip		1
	!cas_local		1
	gui			2
$end

$development
	1sf_heis_projection	1
$end

$molecule
0 25
H	-0.73854	-0.54065	0.08576
H	-2.3134	-1.01748	-0.67017
H	-2.09582	0.65549	-0.01146
H	-2.21044	-0.75437	1.11995
H	1.47674	3.07203	0.09828
H	0.1685	3.66022	1.20546
H	0.18287	1.9348	0.65668
H	-0.21686	3.25528	-0.51743
H	3.4885	-0.87553	-0.06084
H	2.29649	0.48578	-0.00191
H	1.9396	-1.06676	0.85992
H	1.91588	-1.00965	-0.95022
He	10	10	10
He	-10	10	10
H	19.26146	19.45935	20.08576
H	17.6866	18.98252	19.32983
H	17.90418	20.65549	19.98854
H	17.78956	19.24563	21.11995
H	21.47674	23.07203	20.09828
H	20.1685	23.66022	21.20546
H	20.18287	21.9348	20.65668
H	19.78314	23.25528	19.48257
H	23.4885	19.12447	19.93916
H	22.29649	20.48578	19.99809
H	21.9396	18.93324	20.85992
H	21.91588	18.99035	19.04978
He	30	30	30
He	10	30	30
$end


@@@
$rem
	exchange 		hf
	unrestricted		0
	basis			6-31g*	
	aux_basis		rimp2-vdz
	scf_guess		read	
	scf_convergence		8
	purecart		1111
	
	symmetry		0
	sym_ignore		1

	correlation		sf-cas
	cas_n_spin_flip		1
	cas_local		1
	gui			2
$end

$development
	1sf_heis_projection	1
	scf_corresponding_orbs	1
        heisenberg_n_roots	0
$end

$molecule
read
$end

