$rem
	exchange 		hf
	unrestricted		1
	basis			6-31g*	
	aux_basis		rimp2-vdz
	scf_guess		core	
	scf_convergence		8
	purecart		1111
	
	symmetry		0
	sym_ignore		1

	!correlation		sf-cas
	!cas_n_spin_flip		1
	!cas_local		1
	gui			2
$end

$development
	1sf_heis_projection	1
$end

$molecule
0 25
H         -2.84748        3.37274       -0.27802
H         -2.58268        1.64369        0.18569
H         -4.19546        2.17355       -0.44146
H         -3.64413        2.69831        1.20355
H          0.91180       -0.69082       -0.05491
H         -0.77282       -0.03486       -0.13778
H         -0.45645       -1.60331        0.70657
H         -0.32838       -1.50257       -1.09832
H          1.07134        2.07490        0.32805
H         -0.17588        2.47943       -0.92077
H          1.10862        3.68472       -0.50177
H         -0.20459        3.30956        0.68795
H         -3.15223       -1.82134       -0.73317
H         -3.29142       -0.91382        0.82784
H         -4.56169       -2.11870        0.36520
H         -4.42884       -0.55168       -0.53391
H         -0.05018        0.87842        2.44526
H         -1.35289        2.09859        2.75550
H         -0.96779        0.84639        4.00647
H         -1.78657        0.36464        2.46486
H         -0.85720        0.71736       -2.85585
H         -2.51174        0.33769       -2.22583
H         -2.27419        0.69688       -3.98453
H         -2.11149        2.02106       -2.75882
He	10	10	10	
He	-10	10	10	
$end


@@@
$rem
	exchange 		hf
	unrestricted		0
	basis			6-31g*	
	aux_basis		rimp2-vdz
	scf_guess		read	
	scf_convergence		8
	purecart		1111
	
	symmetry		0
	sym_ignore		1

	correlation		sf-cas
	cas_n_spin_flip		1
	cas_local		1
	gui			2
$end

$development
	1sf_heis_projection	1
	scf_corresponding_orbs	1
        heisenberg_n_roots	0
$end

$molecule
read
$end

